row=6;
column=6;
left=[9, 6, 0, 13, 0, 10];
right=[0, 0, 0, 10, 6, 14];
top=[0, 0, 0, 13, 12, 11];
bottom=[0, 16, 0, 0, 11, 0];
Board=[|0,0,0,0,0,0|0,0,0,0,0,0|0,0,0,0,0,0|0,0,0,0,0,0|0,0,0,0,0,0|0,0,0,0,0,0|]